p cnf 321 666
1 2 3 4 5 6 7 8 9 10 0
-1 -2 0
-1 -3 0
-1 -4 0
-1 -5 0
-1 -6 0
-1 -7 0
-1 -8 0
-1 -9 0
-1 -10 0
-2 -3 0
-2 -4 0
-2 -5 0
-2 -6 0
-2 -7 0
-2 -8 0
-2 -9 0
-2 -10 0
-3 -4 0
-3 -5 0
-3 -6 0
-3 -7 0
-3 -8 0
-3 -9 0
-3 -10 0
-4 -5 0
-4 -6 0
-4 -7 0
-4 -8 0
-4 -9 0
-4 -10 0
-5 -6 0
-5 -7 0
-5 -8 0
-5 -9 0
-5 -10 0
-6 -7 0
-6 -8 0
-6 -9 0
-6 -10 0
-7 -8 0
-7 -9 0
-7 -10 0
-8 -9 0
-8 -10 0
-9 -10 0
-1 -222 122 0
-22 -223 133 0
-23 -224 144 0
-24 -225 155 0
-25 -226 166 0
-26 -227 177 0
-27 -228 188 0
-28 -229 199 0
-29 -230 210 0
-30 -231 221 0
-2 -232 122 0
-32 -233 133 0
-33 -234 144 0
-34 -235 155 0
-35 -236 166 0
-36 -237 177 0
-37 -238 188 0
-38 -239 199 0
-39 -240 210 0
-40 -241 221 0
-3 -242 122 0
-42 -243 133 0
-43 -244 144 0
-44 -245 155 0
-45 -246 166 0
-46 -247 177 0
-47 -248 188 0
-48 -249 199 0
-49 -250 210 0
-50 -251 221 0
-4 -252 122 0
-52 -253 133 0
-53 -254 144 0
-54 -255 155 0
-55 -256 166 0
-56 -257 177 0
-57 -258 188 0
-58 -259 199 0
-59 -260 210 0
-60 -261 221 0
-5 -262 122 0
-62 -263 133 0
-63 -264 144 0
-64 -265 155 0
-65 -266 166 0
-66 -267 177 0
-67 -268 188 0
-68 -269 199 0
-69 -270 210 0
-70 -271 221 0
-6 -272 122 0
-72 -273 133 0
-73 -274 144 0
-74 -275 155 0
-75 -276 166 0
-76 -277 177 0
-77 -278 188 0
-78 -279 199 0
-79 -280 210 0
-80 -281 221 0
-7 -282 122 0
-82 -283 133 0
-83 -284 144 0
-84 -285 155 0
-85 -286 166 0
-86 -287 177 0
-87 -288 188 0
-88 -289 199 0
-89 -290 210 0
-90 -291 221 0
-8 -292 122 0
-92 -293 133 0
-93 -294 144 0
-94 -295 155 0
-95 -296 166 0
-96 -297 177 0
-97 -298 188 0
-98 -299 199 0
-99 -300 210 0
-100 -301 221 0
-9 -302 122 0
-102 -303 133 0
-103 -304 144 0
-104 -305 155 0
-105 -306 166 0
-106 -307 177 0
-107 -308 188 0
-108 -309 199 0
-109 -310 210 0
-110 -311 221 0
-10 -312 122 0
-112 -313 133 0
-113 -314 144 0
-114 -315 155 0
-115 -316 166 0
-116 -317 177 0
-117 -318 188 0
-118 -319 199 0
-119 -320 210 0
-120 -321 221 0
-1 22 0
1 -22 0
-22 23 0
22 -23 0
-23 24 0
23 -24 0
-24 25 0
24 -25 0
-25 26 0
25 -26 0
-26 27 0
26 -27 0
-27 28 0
27 -28 0
-28 29 0
28 -29 0
-29 30 0
29 -30 0
-30 31 0
30 -31 0
-2 32 0
2 -32 0
-32 33 0
32 -33 0
-33 34 0
33 -34 0
-34 35 0
34 -35 0
-35 36 0
35 -36 0
-36 37 0
36 -37 0
-37 38 0
37 -38 0
-38 39 0
38 -39 0
-39 40 0
39 -40 0
-40 41 0
40 -41 0
-3 42 0
3 -42 0
-42 43 0
42 -43 0
-43 44 0
43 -44 0
-44 45 0
44 -45 0
-45 46 0
45 -46 0
-46 47 0
46 -47 0
-47 48 0
47 -48 0
-48 49 0
48 -49 0
-49 50 0
49 -50 0
-50 51 0
50 -51 0
-4 52 0
4 -52 0
-52 53 0
52 -53 0
-53 54 0
53 -54 0
-54 55 0
54 -55 0
-55 56 0
55 -56 0
-56 57 0
56 -57 0
-57 58 0
57 -58 0
-58 59 0
58 -59 0
-59 60 0
59 -60 0
-60 61 0
60 -61 0
-5 62 0
5 -62 0
-62 63 0
62 -63 0
-63 64 0
63 -64 0
-64 65 0
64 -65 0
-65 66 0
65 -66 0
-66 67 0
66 -67 0
-67 68 0
67 -68 0
-68 69 0
68 -69 0
-69 70 0
69 -70 0
-70 71 0
70 -71 0
-6 72 0
6 -72 0
-72 73 0
72 -73 0
-73 74 0
73 -74 0
-74 75 0
74 -75 0
-75 76 0
75 -76 0
-76 77 0
76 -77 0
-77 78 0
77 -78 0
-78 79 0
78 -79 0
-79 80 0
79 -80 0
-80 81 0
80 -81 0
-7 82 0
7 -82 0
-82 83 0
82 -83 0
-83 84 0
83 -84 0
-84 85 0
84 -85 0
-85 86 0
85 -86 0
-86 87 0
86 -87 0
-87 88 0
87 -88 0
-88 89 0
88 -89 0
-89 90 0
89 -90 0
-90 91 0
90 -91 0
-8 92 0
8 -92 0
-92 93 0
92 -93 0
-93 94 0
93 -94 0
-94 95 0
94 -95 0
-95 96 0
95 -96 0
-96 97 0
96 -97 0
-97 98 0
97 -98 0
-98 99 0
98 -99 0
-99 100 0
99 -100 0
-100 101 0
100 -101 0
-9 102 0
9 -102 0
-102 103 0
102 -103 0
-103 104 0
103 -104 0
-104 105 0
104 -105 0
-105 106 0
105 -106 0
-106 107 0
106 -107 0
-107 108 0
107 -108 0
-108 109 0
108 -109 0
-109 110 0
109 -110 0
-110 111 0
110 -111 0
-10 112 0
10 -112 0
-112 113 0
112 -113 0
-113 114 0
113 -114 0
-114 115 0
114 -115 0
-115 116 0
115 -116 0
-116 117 0
116 -117 0
-117 118 0
117 -118 0
-118 119 0
118 -119 0
-119 120 0
119 -120 0
-120 121 0
120 -121 0
-11 122 0
-1 -222 12 0
-12 1 0
-12 222 0
-2 -232 13 0
-13 2 0
-13 232 0
-3 -242 14 0
-14 3 0
-14 242 0
-4 -252 15 0
-15 4 0
-15 252 0
-5 -262 16 0
-16 5 0
-16 262 0
-6 -272 17 0
-17 6 0
-17 272 0
-7 -282 18 0
-18 7 0
-18 282 0
-8 -292 19 0
-19 8 0
-19 292 0
-9 -302 20 0
-20 9 0
-20 302 0
-10 -312 21 0
-21 10 0
-21 312 0
12 13 14 15 16 17 18 19 20 21 11 -122 0
-122 133 0
-22 -223 123 0
-123 22 0
-123 223 0
-32 -233 124 0
-124 32 0
-124 233 0
-42 -243 125 0
-125 42 0
-125 243 0
-52 -253 126 0
-126 52 0
-126 253 0
-62 -263 127 0
-127 62 0
-127 263 0
-72 -273 128 0
-128 72 0
-128 273 0
-82 -283 129 0
-129 82 0
-129 283 0
-92 -293 130 0
-130 92 0
-130 293 0
-102 -303 131 0
-131 102 0
-131 303 0
-112 -313 132 0
-132 112 0
-132 313 0
123 124 125 126 127 128 129 130 131 132 122 -133 0
-133 144 0
-23 -224 134 0
-134 23 0
-134 224 0
-33 -234 135 0
-135 33 0
-135 234 0
-43 -244 136 0
-136 43 0
-136 244 0
-53 -254 137 0
-137 53 0
-137 254 0
-63 -264 138 0
-138 63 0
-138 264 0
-73 -274 139 0
-139 73 0
-139 274 0
-83 -284 140 0
-140 83 0
-140 284 0
-93 -294 141 0
-141 93 0
-141 294 0
-103 -304 142 0
-142 103 0
-142 304 0
-113 -314 143 0
-143 113 0
-143 314 0
134 135 136 137 138 139 140 141 142 143 133 -144 0
-144 155 0
-24 -225 145 0
-145 24 0
-145 225 0
-34 -235 146 0
-146 34 0
-146 235 0
-44 -245 147 0
-147 44 0
-147 245 0
-54 -255 148 0
-148 54 0
-148 255 0
-64 -265 149 0
-149 64 0
-149 265 0
-74 -275 150 0
-150 74 0
-150 275 0
-84 -285 151 0
-151 84 0
-151 285 0
-94 -295 152 0
-152 94 0
-152 295 0
-104 -305 153 0
-153 104 0
-153 305 0
-114 -315 154 0
-154 114 0
-154 315 0
145 146 147 148 149 150 151 152 153 154 144 -155 0
-155 166 0
-25 -226 156 0
-156 25 0
-156 226 0
-35 -236 157 0
-157 35 0
-157 236 0
-45 -246 158 0
-158 45 0
-158 246 0
-55 -256 159 0
-159 55 0
-159 256 0
-65 -266 160 0
-160 65 0
-160 266 0
-75 -276 161 0
-161 75 0
-161 276 0
-85 -286 162 0
-162 85 0
-162 286 0
-95 -296 163 0
-163 95 0
-163 296 0
-105 -306 164 0
-164 105 0
-164 306 0
-115 -316 165 0
-165 115 0
-165 316 0
156 157 158 159 160 161 162 163 164 165 155 -166 0
-166 177 0
-26 -227 167 0
-167 26 0
-167 227 0
-36 -237 168 0
-168 36 0
-168 237 0
-46 -247 169 0
-169 46 0
-169 247 0
-56 -257 170 0
-170 56 0
-170 257 0
-66 -267 171 0
-171 66 0
-171 267 0
-76 -277 172 0
-172 76 0
-172 277 0
-86 -287 173 0
-173 86 0
-173 287 0
-96 -297 174 0
-174 96 0
-174 297 0
-106 -307 175 0
-175 106 0
-175 307 0
-116 -317 176 0
-176 116 0
-176 317 0
167 168 169 170 171 172 173 174 175 176 166 -177 0
-177 188 0
-27 -228 178 0
-178 27 0
-178 228 0
-37 -238 179 0
-179 37 0
-179 238 0
-47 -248 180 0
-180 47 0
-180 248 0
-57 -258 181 0
-181 57 0
-181 258 0
-67 -268 182 0
-182 67 0
-182 268 0
-77 -278 183 0
-183 77 0
-183 278 0
-87 -288 184 0
-184 87 0
-184 288 0
-97 -298 185 0
-185 97 0
-185 298 0
-107 -308 186 0
-186 107 0
-186 308 0
-117 -318 187 0
-187 117 0
-187 318 0
178 179 180 181 182 183 184 185 186 187 177 -188 0
-188 199 0
-28 -229 189 0
-189 28 0
-189 229 0
-38 -239 190 0
-190 38 0
-190 239 0
-48 -249 191 0
-191 48 0
-191 249 0
-58 -259 192 0
-192 58 0
-192 259 0
-68 -269 193 0
-193 68 0
-193 269 0
-78 -279 194 0
-194 78 0
-194 279 0
-88 -289 195 0
-195 88 0
-195 289 0
-98 -299 196 0
-196 98 0
-196 299 0
-108 -309 197 0
-197 108 0
-197 309 0
-118 -319 198 0
-198 118 0
-198 319 0
189 190 191 192 193 194 195 196 197 198 188 -199 0
-199 210 0
-29 -230 200 0
-200 29 0
-200 230 0
-39 -240 201 0
-201 39 0
-201 240 0
-49 -250 202 0
-202 49 0
-202 250 0
-59 -260 203 0
-203 59 0
-203 260 0
-69 -270 204 0
-204 69 0
-204 270 0
-79 -280 205 0
-205 79 0
-205 280 0
-89 -290 206 0
-206 89 0
-206 290 0
-99 -300 207 0
-207 99 0
-207 300 0
-109 -310 208 0
-208 109 0
-208 310 0
-119 -320 209 0
-209 119 0
-209 320 0
200 201 202 203 204 205 206 207 208 209 199 -210 0
-210 221 0
-30 -231 211 0
-211 30 0
-211 231 0
-40 -241 212 0
-212 40 0
-212 241 0
-50 -251 213 0
-213 50 0
-213 251 0
-60 -261 214 0
-214 60 0
-214 261 0
-70 -271 215 0
-215 70 0
-215 271 0
-80 -281 216 0
-216 80 0
-216 281 0
-90 -291 217 0
-217 90 0
-217 291 0
-100 -301 218 0
-218 100 0
-218 301 0
-110 -311 219 0
-219 110 0
-219 311 0
-120 -321 220 0
-220 120 0
-220 321 0
211 212 213 214 215 216 217 218 219 220 210 -221 0
